124
100000000
15387551
7767884
13246957
11268897
21591680
13217700
10596387
17117812
14956171
21073815
15345852
799986
3546946
10585039
18558975
3212176
13626974
3499248
11144755
8000557
18856164
4596003
5541289
674911
15650516
16593542
5608925
4422614
14339894
21494559
19030150
18365847
19872629
17890967
20692101
3196280
5583750
9348212
19193164
10366871
16165692
3207210
1972665
12028868
4822187
23852701
7201201
3622333
20472826
24781366
12158027
24265817
20192360
10679516
9051924
22461326
11967203
18097268
3570233
4902443
4346134
3978431
7437095
22983412
24059104
11431984
2841692
11268522
9466412
7489648
23296024
17718174
21994476
11782334
12598591
14622784
15039504
7519745
9882515
24928749
5281408
1761
13731564
10809743
20355605
21340709
12464121
24878023
1837788
12659097
10947693
1732092
415934
4500311
9517337
15591091
11258893
4523861
3125246
11854040
1579117
15618425
14534121
9586995
10305902
15123734
2468848
21782412
15486584
16354324
6712804
19182544
20011198
4571823
1008612
2744562
16868684
5834621
7778725
12343406
22131767
22869091
11359743
20893395
